%%% static parameters %%%
timespan = 1;
Fact = [3];
Distr1 = [10];
Distr2 = [20];
Clients_N = [40];
Demand_W = [15];
Lt0 = [4];
Lt1 = [4];
SS_ = [0.85];
DS_D = [7];
K = [200];
MA = [500];
%%% dynamic parameters %%%
lost_ratio_sales_ret_th = 0.22529994939285503;
lost_ratio_sales_ret_w = 1;
lost_ratio_sales_dis_th = 0.10447044530850014;
lost_ratio_sales_dis_w = 63;
lost_ratio_sales_fac_th = 0.38391639510127806;
lost_ratio_sales_fac_w = 42;
stock_customer_MA_mean_relative_th = 0.8273097394948111;
stock_customer_MA_mean_relative_w = 22;
stock_distributor_MA_mean_relative_th = 0.4202198165509665;
stock_distributor_MA_mean_relative_w = 24;
stock_retailer_MA_mean_relative_th = 0.32491696815035687;
stock_retailer_MA_mean_relative_w = 99;
stock_factory_MA_mean_relative_th = 0.5927216823704374;
stock_factory_MA_mean_relative_w = 56;
